c FILE: yuzGCPrnd83.10.col
c
c SOURCE: Yu.Zorin (yzorin@gmail.com)
c
c DESCRIPTION: Random graph 
c              generated for Artificial Intelligence lectures course
c
p edge 83 1145
e 1 3
e 1 6
e 1 17
e 1 20
e 1 22
e 1 23
e 1 24
e 1 25
e 1 28
e 1 31
e 1 33
e 1 37
e 1 41
e 1 42
e 1 45
e 1 48
e 1 53
e 1 56
e 1 61
e 1 63
e 1 64
e 1 68
e 1 69
e 1 70
e 1 74
e 1 80
e 1 81
e 1 82
e 1 83
e 2 3
e 2 10
e 2 11
e 2 17
e 2 18
e 2 21
e 2 22
e 2 24
e 2 26
e 2 29
e 2 31
e 2 38
e 2 40
e 2 44
e 2 45
e 2 48
e 2 51
e 2 52
e 2 58
e 2 59
e 2 61
e 2 65
e 2 66
e 2 73
e 2 74
e 2 75
e 2 76
e 3 4
e 3 7
e 3 10
e 3 11
e 3 12
e 3 17
e 3 19
e 3 21
e 3 22
e 3 25
e 3 28
e 3 32
e 3 34
e 3 38
e 3 40
e 3 44
e 3 45
e 3 51
e 3 52
e 3 53
e 3 54
e 3 58
e 3 60
e 3 72
e 3 73
e 3 74
e 3 77
e 3 78
e 4 7
e 4 9
e 4 11
e 4 12
e 4 18
e 4 19
e 4 21
e 4 23
e 4 24
e 4 26
e 4 31
e 4 33
e 4 34
e 4 36
e 4 37
e 4 39
e 4 47
e 4 50
e 4 53
e 4 55
e 4 58
e 4 61
e 4 62
e 4 63
e 4 65
e 4 66
e 4 77
e 4 78
e 4 80
e 4 82
e 5 7
e 5 11
e 5 12
e 5 20
e 5 25
e 5 26
e 5 27
e 5 30
e 5 36
e 5 39
e 5 41
e 5 42
e 5 43
e 5 44
e 5 46
e 5 51
e 5 54
e 5 55
e 5 59
e 5 61
e 5 62
e 5 64
e 5 66
e 5 67
e 5 69
e 5 71
e 5 72
e 5 75
e 5 76
e 5 79
e 5 80
e 5 82
e 6 8
e 6 12
e 6 14
e 6 15
e 6 16
e 6 19
e 6 21
e 6 22
e 6 24
e 6 26
e 6 28
e 6 33
e 6 34
e 6 35
e 6 37
e 6 39
e 6 44
e 6 49
e 6 50
e 6 51
e 6 54
e 6 59
e 6 60
e 6 63
e 6 64
e 6 68
e 6 69
e 6 70
e 6 72
e 6 75
e 7 9
e 7 10
e 7 17
e 7 18
e 7 21
e 7 25
e 7 26
e 7 32
e 7 37
e 7 38
e 7 41
e 7 44
e 7 48
e 7 50
e 7 56
e 7 59
e 7 60
e 7 62
e 7 64
e 7 65
e 7 74
e 7 76
e 7 79
e 7 80
e 8 16
e 8 21
e 8 22
e 8 24
e 8 25
e 8 27
e 8 29
e 8 31
e 8 33
e 8 35
e 8 42
e 8 44
e 8 45
e 8 46
e 8 48
e 8 51
e 8 52
e 8 55
e 8 58
e 8 64
e 8 65
e 8 68
e 8 69
e 9 13
e 9 17
e 9 18
e 9 19
e 9 22
e 9 23
e 9 27
e 9 35
e 9 37
e 9 38
e 9 46
e 9 49
e 9 50
e 9 51
e 9 55
e 9 58
e 9 60
e 9 62
e 9 66
e 9 72
e 9 73
e 9 75
e 9 80
e 9 81
e 10 13
e 10 20
e 10 21
e 10 24
e 10 26
e 10 27
e 10 31
e 10 33
e 10 36
e 10 37
e 10 38
e 10 40
e 10 46
e 10 50
e 10 51
e 10 58
e 10 60
e 10 67
e 10 71
e 10 79
e 10 80
e 10 82
e 11 13
e 11 14
e 11 18
e 11 23
e 11 24
e 11 26
e 11 27
e 11 33
e 11 35
e 11 41
e 11 42
e 11 43
e 11 47
e 11 50
e 11 51
e 11 52
e 11 55
e 11 56
e 11 57
e 11 67
e 11 70
e 11 71
e 11 72
e 11 76
e 11 79
e 11 81
e 12 13
e 12 14
e 12 22
e 12 28
e 12 29
e 12 32
e 12 34
e 12 35
e 12 39
e 12 41
e 12 43
e 12 46
e 12 47
e 12 53
e 12 54
e 12 59
e 12 68
e 12 69
e 12 70
e 12 72
e 12 73
e 13 17
e 13 21
e 13 23
e 13 26
e 13 27
e 13 28
e 13 30
e 13 31
e 13 32
e 13 35
e 13 44
e 13 45
e 13 49
e 13 50
e 13 53
e 13 54
e 13 55
e 13 58
e 13 62
e 13 63
e 13 64
e 13 67
e 13 74
e 13 77
e 13 78
e 13 79
e 13 81
e 13 82
e 14 15
e 14 17
e 14 20
e 14 22
e 14 23
e 14 24
e 14 27
e 14 29
e 14 34
e 14 37
e 14 39
e 14 42
e 14 43
e 14 44
e 14 46
e 14 49
e 14 50
e 14 52
e 14 53
e 14 54
e 14 56
e 14 60
e 14 62
e 14 66
e 14 67
e 14 68
e 14 73
e 14 78
e 14 80
e 15 21
e 15 22
e 15 24
e 15 25
e 15 28
e 15 30
e 15 32
e 15 33
e 15 39
e 15 41
e 15 44
e 15 47
e 15 49
e 15 50
e 15 51
e 15 61
e 15 62
e 15 64
e 15 66
e 15 69
e 15 71
e 15 74
e 15 75
e 16 22
e 16 23
e 16 32
e 16 34
e 16 40
e 16 43
e 16 45
e 16 47
e 16 50
e 16 51
e 16 53
e 16 54
e 16 55
e 16 56
e 16 66
e 16 68
e 16 70
e 16 71
e 16 74
e 16 78
e 16 82
e 17 25
e 17 28
e 17 31
e 17 32
e 17 35
e 17 38
e 17 40
e 17 45
e 17 46
e 17 51
e 17 52
e 17 53
e 17 55
e 17 61
e 17 63
e 17 66
e 17 68
e 17 71
e 17 72
e 17 73
e 17 77
e 18 20
e 18 22
e 18 25
e 18 29
e 18 30
e 18 31
e 18 33
e 18 34
e 18 38
e 18 44
e 18 45
e 18 49
e 18 52
e 18 54
e 18 56
e 18 57
e 18 61
e 18 66
e 18 69
e 18 72
e 18 75
e 18 78
e 18 81
e 19 23
e 19 24
e 19 26
e 19 27
e 19 35
e 19 39
e 19 42
e 19 47
e 19 48
e 19 50
e 19 51
e 19 52
e 19 53
e 19 56
e 19 57
e 19 61
e 19 64
e 19 69
e 19 73
e 19 75
e 19 76
e 19 81
e 20 21
e 20 23
e 20 29
e 20 30
e 20 32
e 20 35
e 20 39
e 20 42
e 20 45
e 20 47
e 20 54
e 20 55
e 20 56
e 20 58
e 20 60
e 20 65
e 20 66
e 20 70
e 20 74
e 20 79
e 21 22
e 21 25
e 21 27
e 21 29
e 21 31
e 21 34
e 21 35
e 21 37
e 21 45
e 21 46
e 21 48
e 21 50
e 21 53
e 21 66
e 21 69
e 21 72
e 21 73
e 21 82
e 22 23
e 22 25
e 22 32
e 22 41
e 22 48
e 22 54
e 22 60
e 22 64
e 22 72
e 22 77
e 22 79
e 22 80
e 22 81
e 22 83
e 23 24
e 23 25
e 23 28
e 23 30
e 23 36
e 23 37
e 23 38
e 23 39
e 23 46
e 23 51
e 23 54
e 23 55
e 23 56
e 23 57
e 23 60
e 23 63
e 23 66
e 23 68
e 23 69
e 23 70
e 23 80
e 24 29
e 24 33
e 24 35
e 24 36
e 24 39
e 24 42
e 24 44
e 24 46
e 24 47
e 24 53
e 24 56
e 24 59
e 24 60
e 24 62
e 24 64
e 24 67
e 24 78
e 24 79
e 24 82
e 25 32
e 25 35
e 25 39
e 25 43
e 25 44
e 25 52
e 25 54
e 25 57
e 25 59
e 25 63
e 25 64
e 25 73
e 25 75
e 25 80
e 25 83
e 26 30
e 26 35
e 26 37
e 26 38
e 26 41
e 26 46
e 26 49
e 26 50
e 26 51
e 26 53
e 26 56
e 26 57
e 26 65
e 26 68
e 26 70
e 26 75
e 26 76
e 26 78
e 26 80
e 26 81
e 26 82
e 27 32
e 27 33
e 27 36
e 27 38
e 27 40
e 27 41
e 27 42
e 27 44
e 27 54
e 27 56
e 27 59
e 27 62
e 27 64
e 27 65
e 27 73
e 27 76
e 27 77
e 27 79
e 27 81
e 28 33
e 28 34
e 28 35
e 28 39
e 28 40
e 28 47
e 28 49
e 28 57
e 28 58
e 28 61
e 28 62
e 28 65
e 28 66
e 28 67
e 28 70
e 28 72
e 28 74
e 28 75
e 28 80
e 28 81
e 29 30
e 29 31
e 29 32
e 29 33
e 29 38
e 29 41
e 29 43
e 29 50
e 29 51
e 29 53
e 29 60
e 29 61
e 29 64
e 29 65
e 29 66
e 29 72
e 29 74
e 29 81
e 30 32
e 30 34
e 30 35
e 30 36
e 30 39
e 30 40
e 30 41
e 30 43
e 30 44
e 30 45
e 30 51
e 30 61
e 30 63
e 30 64
e 30 67
e 30 68
e 30 73
e 30 75
e 30 79
e 31 43
e 31 44
e 31 46
e 31 48
e 31 53
e 31 56
e 31 57
e 31 60
e 31 63
e 31 64
e 31 66
e 31 68
e 31 69
e 31 73
e 31 74
e 31 76
e 31 79
e 31 82
e 32 36
e 32 40
e 32 41
e 32 44
e 32 46
e 32 47
e 32 50
e 32 51
e 32 52
e 32 54
e 32 56
e 32 61
e 32 65
e 32 66
e 32 70
e 32 72
e 32 76
e 32 79
e 32 81
e 33 37
e 33 44
e 33 47
e 33 48
e 33 58
e 33 59
e 33 61
e 33 62
e 33 65
e 33 69
e 33 71
e 33 72
e 33 74
e 33 76
e 33 78
e 33 79
e 33 80
e 33 83
e 34 44
e 34 46
e 34 47
e 34 53
e 34 54
e 34 57
e 34 62
e 34 64
e 34 66
e 34 67
e 34 70
e 34 71
e 34 73
e 34 80
e 34 81
e 35 36
e 35 37
e 35 38
e 35 43
e 35 45
e 35 49
e 35 52
e 35 54
e 35 59
e 35 63
e 35 66
e 35 69
e 35 75
e 35 78
e 35 79
e 35 80
e 36 38
e 36 39
e 36 40
e 36 44
e 36 45
e 36 46
e 36 48
e 36 50
e 36 54
e 36 55
e 36 58
e 36 61
e 36 65
e 36 69
e 36 71
e 36 82
e 37 42
e 37 43
e 37 46
e 37 48
e 37 51
e 37 53
e 37 60
e 37 62
e 37 70
e 37 72
e 37 75
e 37 76
e 37 77
e 37 81
e 38 45
e 38 51
e 38 54
e 38 59
e 38 60
e 38 62
e 38 64
e 38 67
e 38 68
e 38 73
e 38 74
e 38 75
e 38 76
e 38 78
e 38 79
e 38 80
e 38 82
e 38 83
e 39 43
e 39 47
e 39 48
e 39 52
e 39 53
e 39 58
e 39 61
e 39 62
e 39 66
e 39 70
e 39 78
e 39 83
e 40 41
e 40 42
e 40 45
e 40 51
e 40 54
e 40 58
e 40 61
e 40 64
e 40 73
e 40 74
e 40 77
e 40 82
e 40 83
e 41 45
e 41 46
e 41 48
e 41 54
e 41 60
e 41 61
e 41 65
e 41 68
e 41 70
e 41 76
e 41 78
e 42 46
e 42 51
e 42 53
e 42 55
e 42 57
e 42 59
e 42 61
e 42 63
e 42 66
e 42 68
e 42 71
e 42 72
e 42 75
e 42 76
e 42 82
e 43 45
e 43 49
e 43 50
e 43 51
e 43 59
e 43 60
e 43 61
e 43 65
e 43 66
e 43 68
e 43 70
e 43 71
e 43 75
e 43 80
e 43 81
e 44 45
e 44 49
e 44 52
e 44 53
e 44 54
e 44 57
e 44 63
e 44 66
e 44 67
e 44 71
e 44 77
e 45 49
e 45 50
e 45 54
e 45 57
e 45 61
e 45 62
e 45 68
e 45 69
e 45 71
e 45 72
e 45 73
e 45 74
e 45 77
e 45 78
e 46 49
e 46 52
e 46 53
e 46 54
e 46 57
e 46 63
e 46 70
e 46 72
e 46 74
e 47 48
e 47 52
e 47 54
e 47 55
e 47 57
e 47 59
e 47 62
e 47 63
e 47 67
e 47 68
e 47 69
e 47 76
e 47 77
e 47 78
e 47 82
e 48 53
e 48 54
e 48 59
e 48 65
e 48 66
e 48 67
e 48 68
e 48 73
e 48 75
e 48 78
e 49 51
e 49 56
e 49 58
e 49 60
e 49 63
e 49 67
e 49 69
e 49 70
e 49 71
e 49 72
e 49 73
e 49 77
e 49 78
e 49 81
e 49 82
e 49 83
e 50 52
e 50 54
e 50 60
e 50 63
e 50 64
e 50 65
e 50 67
e 50 68
e 50 72
e 50 74
e 50 78
e 50 83
e 51 56
e 51 57
e 51 58
e 51 60
e 51 64
e 51 65
e 51 67
e 51 69
e 51 70
e 51 73
e 51 77
e 51 80
e 51 82
e 52 53
e 52 54
e 52 56
e 52 57
e 52 59
e 52 61
e 52 62
e 52 64
e 52 66
e 52 67
e 52 69
e 52 71
e 52 74
e 53 59
e 53 60
e 53 64
e 53 68
e 53 70
e 53 76
e 53 79
e 53 81
e 54 56
e 54 57
e 54 64
e 54 70
e 54 74
e 54 75
e 54 76
e 54 80
e 54 82
e 55 59
e 55 62
e 55 64
e 55 66
e 55 76
e 55 77
e 55 81
e 56 58
e 56 60
e 56 63
e 56 67
e 56 68
e 56 71
e 56 74
e 56 78
e 56 79
e 56 80
e 57 58
e 57 64
e 57 65
e 57 72
e 57 73
e 57 75
e 57 82
e 58 61
e 58 63
e 58 64
e 58 67
e 58 68
e 58 70
e 58 73
e 58 79
e 58 80
e 59 60
e 59 63
e 59 65
e 59 66
e 59 69
e 59 73
e 59 75
e 59 76
e 59 78
e 59 83
e 60 63
e 60 67
e 60 68
e 60 72
e 60 77
e 60 80
e 61 74
e 61 77
e 61 79
e 61 81
e 61 82
e 62 64
e 62 66
e 62 68
e 62 69
e 62 76
e 62 77
e 62 78
e 63 64
e 63 67
e 63 68
e 63 72
e 63 74
e 63 77
e 63 80
e 63 81
e 64 66
e 64 72
e 64 77
e 65 73
e 65 75
e 65 76
e 65 77
e 65 78
e 66 68
e 66 72
e 66 73
e 66 80
e 66 82
e 67 71
e 67 72
e 67 73
e 67 77
e 67 78
e 67 79
e 68 71
e 68 73
e 68 77
e 68 79
e 68 81
e 69 73
e 69 81
e 70 73
e 70 76
e 70 78
e 70 81
e 71 73
e 71 74
e 71 75
e 71 79
e 71 82
e 72 76
e 72 77
e 72 81
e 72 82
e 73 76
e 73 77
e 73 81
e 74 75
e 74 80
e 74 82
e 75 77
e 75 78
e 75 81
e 75 82
e 76 83
e 77 79
e 77 82
e 78 79
e 78 80
e 79 80
e 79 81
e 79 83
e 81 82
e 81 83
